133
1000
56
253
232
188
195
69
14
336
154
385
279
12
238
104
470
122
175
238
89
284
235
494
191
344
215
139
274
167
37
144
117
75
321
283
136
393
205
329
104
140
294
107
209
323
148
293
189
7
24
113
244
493
414
100
266
88
13
84
72
68
356
151
464
266
180
192
153
124
256
206
263
489
274
1
174
232
246
228
208
250
461
121
80
330
358
293
379
430
352
155
32
156
376
289
487
277
435
113
140
475
265
8
329
372
82
328
6
425
97
296
316
215
486
485
315
57
242
220
347
3
38
317
108
106
420
96
374
162
339
344
65
318
182
